372375582348558217659176556433782195582285821859174665564129567317658372567374565564135594924482955641295911195959118568371138568673144865838641168683711595592941195682941185682956411196856837145928656411586838564115686583711286865837112955959114586592941128686583711286865911485682956411199559294111595959286411766829564111595956829411459568295641119865838641146859295641146865838641149592956411495929556411568658371118568683864171956565564111965868371149568386411459568295641119856838641176583865641145956838641149592955641459295564112868592941186838641129595837112958659112865867314768295641138686731449559294128658371165865911694682147692864186556415838564729264735641559294782653716556419556473834373776619116919762841925649379642519742619726438716619734628418355644655647763553744383564746283564775265383444656564173955647156565564773283564771283565656496637245546